\ Model pbUFLPnldep_5_5_grb.lp
\ LP format - for model browsing. Use MPS format to capture full model detail.
Minimize
  __pwl(w(1)) + __pwl(w(2)) + __pwl(w(3)) + __pwl(w(4)) + __pwl(w(5))
   + 260 x(1,1) + 239 x(1,2) + 418 x(1,3) + 557 x(1,4) + 346 x(1,5)
   + 161 x(2,1) + 288 x(2,2) + 568 x(2,3) + 379 x(2,4) + 392 x(2,5)
   + 672 x(3,1) + 268 x(3,2) + 122 x(3,3) + 295 x(3,4) + 344 x(3,5)
   + 143 x(4,1) + 393 x(4,2) + 29 x(4,3) + 656 x(4,4) + 654 x(4,5)
   + 235 x(5,1) + 329 x(5,2) + 640 x(5,3) + 517 x(5,4) + 329 x(5,5)
Subject To
 R0: x(1,1) + x(2,1) + x(3,1) + x(4,1) + x(5,1) = 1
 R1: - y(1) + x(1,1) <= 0
 R2: - y(2) + x(2,1) <= 0
 R3: - y(3) + x(3,1) <= 0
 R4: - y(4) + x(4,1) <= 0
 R5: - y(5) + x(5,1) <= 0
 R6: x(1,2) + x(2,2) + x(3,2) + x(4,2) + x(5,2) = 1
 R7: - y(1) + x(1,2) <= 0
 R8: - y(2) + x(2,2) <= 0
 R9: - y(3) + x(3,2) <= 0
 R10: - y(4) + x(4,2) <= 0
 R11: - y(5) + x(5,2) <= 0
 R12: x(1,3) + x(2,3) + x(3,3) + x(4,3) + x(5,3) = 1
 R13: - y(1) + x(1,3) <= 0
 R14: - y(2) + x(2,3) <= 0
 R15: - y(3) + x(3,3) <= 0
 R16: - y(4) + x(4,3) <= 0
 R17: - y(5) + x(5,3) <= 0
 R18: x(1,4) + x(2,4) + x(3,4) + x(4,4) + x(5,4) = 1
 R19: - y(1) + x(1,4) <= 0
 R20: - y(2) + x(2,4) <= 0
 R21: - y(3) + x(3,4) <= 0
 R22: - y(4) + x(4,4) <= 0
 R23: - y(5) + x(5,4) <= 0
 R24: x(1,5) + x(2,5) + x(3,5) + x(4,5) + x(5,5) = 1
 R25: - y(1) + x(1,5) <= 0
 R26: - y(2) + x(2,5) <= 0
 R27: - y(3) + x(3,5) <= 0
 R28: - y(4) + x(4,5) <= 0
 R29: - y(5) + x(5,5) <= 0
 R30: w(1) - 49 x(1,1) - 29 x(1,2) - 23 x(1,3) - 40 x(1,4) - 18 x(1,5) = 0
 R31: w(2) - 49 x(2,1) - 29 x(2,2) - 23 x(2,3) - 40 x(2,4) - 18 x(2,5) = 0
 R32: w(3) - 49 x(3,1) - 29 x(3,2) - 23 x(3,3) - 40 x(3,4) - 18 x(3,5) = 0
 R33: w(4) - 49 x(4,1) - 29 x(4,2) - 23 x(4,3) - 40 x(4,4) - 18 x(4,5) = 0
 R34: w(5) - 49 x(5,1) - 29 x(5,2) - 23 x(5,3) - 40 x(5,4) - 18 x(5,5) = 0
Bounds
 y(1) free
 y(2) free
 y(3) free
 y(4) free
 y(5) free
Binaries
 y(1) y(2) y(3) y(4) y(5)
PWLObj
 w(1): (0, 0) (0, 0) (0, 0) (0.2537141552111471, 0) 
  (0.2537141552111471, 3.65999998407153) 
  (37.26493221407406, 207.3808796255605) 
  (37.26493221407406, 207.3808796255565) (159, 183.000000366)
 w(2): (0, 0) (0, 0) (0, 0) (0.253714155211147, 0) 
  (0.253714155211147, 3.139999986334569) 
  (37.26493221407388, 177.9169295148246) 
  (37.26493221407388, 177.9169295148213) (159, 289.0947106077474)
 w(3): (0, 0) (0, 0) (0, 0) (0.2537141552111471, 0) 
  (0.2537141552111471, 5.039999978065715) 
  (37.26493221407403, 285.5736703040504) 
  (37.26493221407403, 285.5736703040449) (159, 464.0246310391865)
 w(4): (0, 0) (0, 0) (0, 0) (0.2537141552111471, 0) 
  (0.2537141552111471, 5.039999978065714) 
  (4.986347081700959, 78.80674487694571) 
  (4.986347081700959, 78.80674487694561) 
  (26.76855285866526, 241.6197180793572) 
  (26.76855285866526, 241.6197180793571) 
  (37.26493221407403, 249.876961801613) 
  (37.26493221407403, 285.5736703040449) (159, 464.0246310391865)
 w(5): (0, 0) (0, 0) (0, 0) (0.253714155211147, 0) 
  (0.253714155211147, 5.799999974758121) 
  (37.26493221407388, 328.6363666197398) 
  (37.26493221407388, 328.6363666197336) (159, 290.00000058)
End
